problems/simple/simple.fzn
array [1..2] of int: X_INTRODUCED_2_ = [1,-2];
array [1..2] of int: X_INTRODUCED_3_ = [1,-1];
array [1..2] of int: X_INTRODUCED_4_ = [-1,1];
var 2..4: w:: output_var:: is_defined_var;
var 1..4: y:: output_var;
var 1..3: x:: output_var;
var 1..3: z:: output_var;
constraint int_lin_eq(X_INTRODUCED_2_,[w,x],0):: defines_var(w);
constraint int_lin_le(X_INTRODUCED_3_,[w,z],-1);
constraint int_lin_le(X_INTRODUCED_4_,[y,z],-1);
solve  satisfy;
